certificates/rado_a11_c181_N36.drat
-31 -36 0
18 -36 0
-36 0
17 0
-11 0
-23 0
16 0
-21 0
-22 0
-10 0
-12 0
15 0
-31 0
-33 0
-1 0
-9 0
-32 0
-20 0
18 0
14 0
-35 0
-34 0
-24 0
-13 0
-2 0
-8 0
-19 0
-30 0
0
